
Log started (V12.10.0.0) Thu Apr 22 12:01:46 2021


Problem 'asset.lp' read.
Read time = 0.01 sec. (0.01 ticks)
Version identifier: 12.10.0.0 | 2019-11-26 | 843d4de
Found incumbent of value 0.000000 after 0.00 sec. (0.00 ticks)
Tried aggregator 5 times.
MIP Presolve eliminated 48 rows and 8 columns.
MIP Presolve modified 74 coefficients.
Aggregator did 51 substitutions.
Reduced MIP has 27 rows, 54 columns, and 137 nonzeros.
Reduced MIP has 53 binaries, 0 generals, 0 SOSs, and 0 indicators.
Presolve time = 0.00 sec. (0.46 ticks)
Probing time = 0.00 sec. (0.17 ticks)
Cover probing fixed 0 vars, tightened 1 bounds.
Tried aggregator 1 time.
Detecting symmetries...
MIP Presolve eliminated 6 rows and 1 columns.
MIP Presolve modified 4 coefficients.
Reduced MIP has 21 rows, 53 columns, and 124 nonzeros.
Reduced MIP has 53 binaries, 0 generals, 0 SOSs, and 0 indicators.
Presolve time = 0.00 sec. (0.10 ticks)
Probing time = 0.00 sec. (0.17 ticks)
Clique table members: 154.
MIP emphasis: balance optimality and feasibility.
MIP search method: dynamic search.
Parallel mode: deterministic, using up to 4 threads.
Root relaxation solution time = 0.00 sec. (0.08 ticks)

        Nodes                                         Cuts/
   Node  Left     Objective  IInf  Best Integer    Best Bound    ItCnt     Gap

*     0+    0                            0.0000       57.0000              --- 
*     0+    0                           18.0000       57.0000           216.67%
      0     0       30.0000    11       18.0000       30.0000       20   66.67%
*     0+    0                           30.0000       30.0000             0.00%
      0     0        cutoff             30.0000       30.0000       20    0.00%
Elapsed time = 0.01 sec. (1.43 ticks, tree = 0.01 MB, solutions = 2)

Root node processing (before b&c):
  Real time             =    0.01 sec. (1.44 ticks)
Parallel b&c, 4 threads:
  Real time             =    0.00 sec. (0.00 ticks)
  Sync time (average)   =    0.00 sec.
  Wait time (average)   =    0.00 sec.
                          ------------
Total (root+branch&cut) =    0.01 sec. (1.44 ticks)

Solution pool: 3 solutions saved.

MIP - Integer optimal solution:  Objective =  3.0000000000e+01
Solution time =    0.01 sec.  Iterations = 20  Nodes = 0
Deterministic time = 1.44 ticks  (132.84 ticks/sec)


Incumbent solution
Variable Name           Solution Value
F                            30.000000
y10                           1.000000
y2                            1.000000
y7                            1.000000
y35                           1.000000
x24x10x1                      1.000000
x24x10x2                      1.000000
x10x2x1                       1.000000
x10x2x2                       1.000000
x2x7x1                        1.000000
x2x35x2                       1.000000
x7x0x1                        1.000000
x35x0x2                       1.000000
s24                           4.768921
s4                            6.000000
s33                           6.020000
s10                           6.277744
z24z10z1                      1.000000
z24z10z2                      1.000000
s2                            7.815741
s7                            9.110000
s35                           9.200000
s29                           9.380000
s15                           9.390000
z10z2z1                       1.000000
z10z2z2                       1.000000
z2z7z1                        1.000000
z2z35z2                       1.000000
All other variables in the range 1-115 are 0.
